NAME: bier127
COMMENT: Quick (5min) local search tour for bier127 (124909.99226163304)
TYPE: TOUR
DIMENSION: 127
TOUR_SECTION: 1 16 35 36 37 41 14 12 31 27 30 43 34 39 38 26 25 33 122 28 29 32 80 79 77 18 21 17 20 108 15 106 6 24 23 4 22 19 72 8 9 11 114 105 7 120 10 115 13 50 5 121 56 52 124 113 64 58 100 3 90 116 60 91 61 62 59 67 73 74 68 71 70 69 75 76 78 117 84 81 126 82 83 102 101 63 119 96 109 87 88 86 85 110 104 125 89 92 99 65 66 55 47 49 53 48 118 46 94 112 111 107 127 93 95 98 97 123 42 40 44 103 45 54 57 51 2 -1
EOF